sat
(
(define-fun J () String "")
(define-fun T () String "")
(define-fun Q () String "")
(define-fun I () String "aaaaaabbabaabb")
(define-fun K () String "")
(define-fun R () String "")
(define-fun U () String "")
(define-fun L () String "")
(define-fun N () String "")
(define-fun O () String "")
(define-fun M () String "")
(define-fun Z () String "aaaaaaaaaaaaaaabbbaabbaa")
(define-fun P () String "")
(define-fun W () String "")
)
